NAME
ROWS
 N  obj     
 L  c1      
 L  c2      
 L  c3
COLUMNS
    x1        obj                 -1   c1                   2
    x1        c2                  -1   c3                   1
    x2        obj                 -1   c1                   1
    x2        c2                   3
RHS
    rhs       c1                  8   c2                  6
    rhs       c3                  4
BOUNDS
 UP bnd       x1                  4
ENDATA
